
  12    4
  10   10   10   10

   0   0   0   0   0   3 2 4 5 
   5  10  10  10  10   4 9 8 6 3 
   5  10  10  10  10   2 10 7 
   8  10  10  10  10   2 11 9 
   6  10  10  10  10   2 8 7 
   4  10  10  10  10   1 7 
   4  10  10  10  10   1 12
   2  10  10  10  10   1 12
   9  10  10  10  10   1 12
   9  10  10  10  10   1 12
   5  10  10  10  10   1 12
   0   0   0   0   0   0 
